22      2       
9       10      
0       0       0       3       2       3       4       
3       0       0       3       6       10      13      
1       0       5       2       5       8       
5       9       0       4       8       9       13      21      
4       0       0       4       9       11      13      21      
7       0       5       1       7       
5       2       0       3       8       16      21      
6       0       0       1       11      
5       6       0       2       10      12      
3       0       5       3       14      15      16      
9       0       8       2       12      18      
4       0       2       2       14      15      
2       8       0       3       15      16      17      
6       6       0       1       17      
2       3       0       2       19      20      
2       0       10      3       18      19      20      
4       0       8       2       19      20      
8       0       8       1       22      
8       0       9       1       22      
10      0       0       1       22      
1       0       8       1       22      
0       0       0       0       
